c 200_3_checker_6cl.cnf
c
c field = 200
c formula set type = 3_checker_6cl
c
p cnf 6 18
392 
394 
396 
-401 
-390 
-402 
393 
395 
397 
-400 
-391 
-403 
394 
396 
400 
-393 
-390 
-402 
395 
397 
401 
-392 
-391 
-403 
394 
396 
400 
-403 
-392 
-404 
395 
397 
401 
-402 
-393 
-405 
396 
400 
402 
-395 
-392 
-404 
397 
401 
403 
-394 
-393 
-405 
396 
400 
402 
-405 
-394 
-406 
397 
401 
403 
-404 
-395 
-407 
400 
402 
404 
-397 
-394 
-406 
401 
403 
405 
-396 
-395 
-407 
400 
402 
404 
-407 
-396 
-408 
401 
403 
405 
-406 
-397 
-409 
308 
338 
368 
-279 
-248 
-428 
309 
339 
369 
-278 
-249 
-429 
314 
342 
370 
-287 
-258 
-426 
315 
343 
371 
-286 
-259 
-427 
